27	3

10	10	10	

0	0	0	0	3	2	3	4	
2	3	5	2	2	6	7	
4	5	4	3	1	6	
5	5	2	2	2	5	8	
2	4	1	4	1	9	
4	5	5	4	2	9	12	
1	3	5	2	2	9	11	
5	2	4	4	2	9	10	
3	3	2	2	1	16	
3	3	2	4	1	13	
3	3	3	2	1	15	
1	4	1	4	1	14	
3	1	4	4	1	18	
2	2	2	2	1	18	
6	5	5	4	2	17	19	
4	1	5	4	1	20	
3	4	5	4	1	22	
2	3	2	3	1	21	
1	5	3	3	1	23	
2	2	4	6	2	21	24	
2	1	6	2	1	25	
6	3	2	1	1	25	
2	1	0	4	1	25	
2	2	2	1	1	26	
1	0	1	3	1	27	
5	2	2	2	1	27	
0	0	0	0	0	
